p cnf 161 584
-1 -33 0
-2 -33 0
1 2 33 0
1 2 -34 0
-1 -2 -34 0
-1 2 34 0
1 -2 34 0
33 -35 0
-3 -35 0
3 -33 35 0
3 -33 -36 0
-3 33 -36 0
3 33 36 0
-3 -33 36 0
35 -37 0
-4 -37 0
4 -35 37 0
4 -35 -38 0
-4 35 -38 0
4 35 38 0
-4 -35 38 0
37 -39 0
-5 -39 0
5 -37 39 0
5 -37 -40 0
-5 37 -40 0
5 37 40 0
-5 -37 40 0
39 -41 0
-6 -41 0
6 -39 41 0
6 -39 -42 0
-6 39 -42 0
6 39 42 0
-6 -39 42 0
41 -43 0
-7 -43 0
7 -41 43 0
7 -41 -44 0
-7 41 -44 0
7 41 44 0
-7 -41 44 0
43 -45 0
-8 -45 0
8 -43 45 0
8 -43 -46 0
-8 43 -46 0
8 43 46 0
-8 -43 46 0
5 -47 0
1 -47 0
-1 -5 47 0
-1 -5 -48 0
1 5 -48 0
1 -5 48 0
-1 5 48 0
-2 -6 49 0
-6 -47 49 0
-2 -47 49 0
2 6 -49 0
6 47 -49 0
2 47 -49 0
6 -49 -50 0
2 -49 -50 0
47 -49 -50 0
-6 49 50 0
-2 49 50 0
-47 49 50 0
-2 -6 -47 50 0
2 6 47 -50 0
-3 -7 51 0
-7 -49 51 0
-3 -49 51 0
3 7 -51 0
7 49 -51 0
3 49 -51 0
7 -51 -52 0
3 -51 -52 0
49 -51 -52 0
-7 51 52 0
-3 51 52 0
-49 51 52 0
-3 -7 -49 52 0
3 7 49 -52 0
-4 -8 53 0
-8 -51 53 0
-4 -51 53 0
4 8 -53 0
8 51 -53 0
4 51 -53 0
8 -53 -54 0
4 -53 -54 0
51 -53 -54 0
-8 53 54 0
-4 53 54 0
-51 53 54 0
-4 -8 -51 54 0
4 8 51 -54 0
5 -55 0
53 -55 0
-5 -53 55 0
-5 -53 -56 0
5 53 -56 0
-5 53 56 0
5 -53 56 0
6 -57 0
55 -57 0
-6 -55 57 0
-6 -55 -58 0
6 55 -58 0
-6 55 58 0
6 -55 58 0
7 -59 0
57 -59 0
-7 -57 59 0
-7 -57 -60 0
7 57 -60 0
-7 57 60 0
7 -57 60 0
8 -61 0
59 -61 0
-8 -59 61 0
-8 -59 -62 0
8 59 -62 0
-8 59 62 0
8 -59 62 0
-1 -63 0
-2 -63 0
1 2 63 0
1 2 -64 0
-1 -2 -64 0
-1 2 64 0
1 -2 64 0
63 -65 0
-3 -65 0
3 -63 65 0
3 -63 -66 0
-3 63 -66 0
3 63 66 0
-3 -63 66 0
65 -67 0
-4 -67 0
4 -65 67 0
4 -65 -68 0
-4 65 -68 0
4 65 68 0
-4 -65 68 0
67 -69 0
-48 -69 0
48 -67 69 0
48 -67 -70 0
-48 67 -70 0
48 67 70 0
-48 -67 70 0
69 -71 0
-50 -71 0
50 -69 71 0
50 -69 -72 0
-50 69 -72 0
50 69 72 0
-50 -69 72 0
71 -73 0
-52 -73 0
52 -71 73 0
52 -71 -74 0
-52 71 -74 0
52 71 74 0
-52 -71 74 0
73 -75 0
-54 -75 0
54 -73 75 0
54 -73 -76 0
-54 73 -76 0
54 73 76 0
-54 -73 76 0
75 -77 0
-56 -77 0
56 -75 77 0
56 -75 -78 0
-56 75 -78 0
56 75 78 0
-56 -75 78 0
77 -79 0
-58 -79 0
58 -77 79 0
58 -77 -80 0
-58 77 -80 0
58 77 80 0
-58 -77 80 0
79 -81 0
-60 -81 0
60 -79 81 0
60 -79 -82 0
-60 79 -82 0
60 79 82 0
-60 -79 82 0
81 -83 0
-62 -83 0
62 -81 83 0
62 -81 -84 0
-62 81 -84 0
62 81 84 0
-62 -81 84 0
83 -85 0
-61 -85 0
61 -83 85 0
61 -83 -86 0
-61 83 -86 0
61 83 86 0
-61 -83 86 0
-9 -87 0
-10 -87 0
9 10 87 0
9 10 -88 0
-9 -10 -88 0
-9 10 88 0
9 -10 88 0
87 -89 0
-11 -89 0
11 -87 89 0
11 -87 -90 0
-11 87 -90 0
11 87 90 0
-11 -87 90 0
89 -91 0
-12 -91 0
12 -89 91 0
12 -89 -92 0
-12 89 -92 0
12 89 92 0
-12 -89 92 0
91 -93 0
-13 -93 0
13 -91 93 0
13 -91 -94 0
-13 91 -94 0
13 91 94 0
-13 -91 94 0
93 -95 0
-14 -95 0
14 -93 95 0
14 -93 -96 0
-14 93 -96 0
14 93 96 0
-14 -93 96 0
95 -97 0
-15 -97 0
15 -95 97 0
15 -95 -98 0
-15 95 -98 0
15 95 98 0
-15 -95 98 0
97 -99 0
-16 -99 0
16 -97 99 0
16 -97 -100 0
-16 97 -100 0
16 97 100 0
-16 -97 100 0
10 -101 0
9 -101 0
-9 -10 101 0
-9 -10 -102 0
9 10 -102 0
9 -10 102 0
-9 10 102 0
-10 -11 103 0
-11 -101 103 0
-10 -101 103 0
10 11 -103 0
11 101 -103 0
10 101 -103 0
11 -103 -104 0
10 -103 -104 0
101 -103 -104 0
-11 103 104 0
-10 103 104 0
-101 103 104 0
-10 -11 -101 104 0
10 11 101 -104 0
-11 -12 105 0
-12 -103 105 0
-11 -103 105 0
11 12 -105 0
12 103 -105 0
11 103 -105 0
12 -105 -106 0
11 -105 -106 0
103 -105 -106 0
-12 105 106 0
-11 105 106 0
-103 105 106 0
-11 -12 -103 106 0
11 12 103 -106 0
-12 -13 107 0
-13 -105 107 0
-12 -105 107 0
12 13 -107 0
13 105 -107 0
12 105 -107 0
13 -107 -108 0
12 -107 -108 0
105 -107 -108 0
-13 107 108 0
-12 107 108 0
-105 107 108 0
-12 -13 -105 108 0
12 13 105 -108 0
-13 -14 109 0
-14 -107 109 0
-13 -107 109 0
13 14 -109 0
14 107 -109 0
13 107 -109 0
14 -109 -110 0
13 -109 -110 0
107 -109 -110 0
-14 109 110 0
-13 109 110 0
-107 109 110 0
-13 -14 -107 110 0
13 14 107 -110 0
-14 -15 111 0
-15 -109 111 0
-14 -109 111 0
14 15 -111 0
15 109 -111 0
14 109 -111 0
15 -111 -112 0
14 -111 -112 0
109 -111 -112 0
-15 111 112 0
-14 111 112 0
-109 111 112 0
-14 -15 -109 112 0
14 15 109 -112 0
-15 -16 113 0
-16 -111 113 0
-15 -111 113 0
15 16 -113 0
16 111 -113 0
15 111 -113 0
16 -113 -114 0
15 -113 -114 0
111 -113 -114 0
-16 113 114 0
-15 113 114 0
-111 113 114 0
-15 -16 -111 114 0
15 16 111 -114 0
16 -115 0
113 -115 0
-16 -113 115 0
-16 -113 -116 0
16 113 -116 0
-16 113 116 0
16 -113 116 0
-9 -117 0
-102 -117 0
9 102 117 0
9 102 -118 0
-9 -102 -118 0
-9 102 118 0
9 -102 118 0
117 -119 0
-104 -119 0
104 -117 119 0
104 -117 -120 0
-104 117 -120 0
104 117 120 0
-104 -117 120 0
119 -121 0
-106 -121 0
106 -119 121 0
106 -119 -122 0
-106 119 -122 0
106 119 122 0
-106 -119 122 0
121 -123 0
-108 -123 0
108 -121 123 0
108 -121 -124 0
-108 121 -124 0
108 121 124 0
-108 -121 124 0
123 -125 0
-110 -125 0
110 -123 125 0
110 -123 -126 0
-110 123 -126 0
110 123 126 0
-110 -123 126 0
125 -127 0
-112 -127 0
112 -125 127 0
112 -125 -128 0
-112 125 -128 0
112 125 128 0
-112 -125 128 0
127 -129 0
-114 -129 0
114 -127 129 0
114 -127 -130 0
-114 127 -130 0
114 127 130 0
-114 -127 130 0
129 -131 0
-116 -131 0
116 -129 131 0
116 -129 -132 0
-116 129 -132 0
116 129 132 0
-116 -129 132 0
131 -133 0
-115 -133 0
115 -131 133 0
115 -131 -134 0
-115 131 -134 0
115 131 134 0
-115 -131 134 0
1 -135 0
102 -135 0
-1 -102 135 0
-1 -102 -136 0
1 102 -136 0
-1 102 136 0
1 -102 136 0
-2 -104 137 0
-2 -135 137 0
-104 -135 137 0
2 104 -137 0
2 135 -137 0
104 135 -137 0
2 -137 -138 0
104 -137 -138 0
135 -137 -138 0
-2 137 138 0
-104 137 138 0
-135 137 138 0
-2 -104 -135 138 0
2 104 135 -138 0
-3 -106 139 0
-3 -137 139 0
-106 -137 139 0
3 106 -139 0
3 137 -139 0
106 137 -139 0
3 -139 -140 0
106 -139 -140 0
137 -139 -140 0
-3 139 140 0
-106 139 140 0
-137 139 140 0
-3 -106 -137 140 0
3 106 137 -140 0
-4 -108 141 0
-4 -139 141 0
-108 -139 141 0
4 108 -141 0
4 139 -141 0
108 139 -141 0
4 -141 -142 0
108 -141 -142 0
139 -141 -142 0
-4 141 142 0
-108 141 142 0
-139 141 142 0
-4 -108 -139 142 0
4 108 139 -142 0
-48 -110 143 0
-48 -141 143 0
-110 -141 143 0
48 110 -143 0
48 141 -143 0
110 141 -143 0
48 -143 -144 0
110 -143 -144 0
141 -143 -144 0
-48 143 144 0
-110 143 144 0
-141 143 144 0
-48 -110 -141 144 0
48 110 141 -144 0
-50 -112 145 0
-50 -143 145 0
-112 -143 145 0
50 112 -145 0
50 143 -145 0
112 143 -145 0
50 -145 -146 0
112 -145 -146 0
143 -145 -146 0
-50 145 146 0
-112 145 146 0
-143 145 146 0
-50 -112 -143 146 0
50 112 143 -146 0
-52 -114 147 0
-52 -145 147 0
-114 -145 147 0
52 114 -147 0
52 145 -147 0
114 145 -147 0
52 -147 -148 0
114 -147 -148 0
145 -147 -148 0
-52 147 148 0
-114 147 148 0
-145 147 148 0
-52 -114 -145 148 0
52 114 145 -148 0
-54 -116 149 0
-54 -147 149 0
-116 -147 149 0
54 116 -149 0
54 147 -149 0
116 147 -149 0
54 -149 -150 0
116 -149 -150 0
147 -149 -150 0
-54 149 150 0
-116 149 150 0
-147 149 150 0
-54 -116 -147 150 0
54 116 147 -150 0
-56 -115 151 0
-56 -149 151 0
-115 -149 151 0
56 115 -151 0
56 149 -151 0
115 149 -151 0
56 -151 -152 0
115 -151 -152 0
149 -151 -152 0
-56 151 152 0
-115 151 152 0
-149 151 152 0
-56 -115 -149 152 0
56 115 149 -152 0
58 -153 0
151 -153 0
-58 -151 153 0
-58 -151 -154 0
58 151 -154 0
-58 151 154 0
58 -151 154 0
60 -155 0
153 -155 0
-60 -153 155 0
-60 -153 -156 0
60 153 -156 0
-60 153 156 0
60 -153 156 0
62 -157 0
155 -157 0
-62 -155 157 0
-62 -155 -158 0
62 155 -158 0
-62 155 158 0
62 -155 158 0
61 -159 0
157 -159 0
-61 -157 159 0
-61 -157 -160 0
61 157 -160 0
-61 157 160 0
61 -157 160 0
-9 -161 0
-136 -161 0
-138 -161 0
140 -161 0
142 -161 0
144 -161 0
146 -161 0
-148 -161 0
-150 -161 0
-152 -161 0
-154 -161 0
-156 -161 0
-158 -161 0
-159 -161 0
-160 -161 0
9 136 138 -140 -142 -144 -146 148 150 152 154 156 158 159 160 161 0
161 0
c main::$tmp::return_value_nondet_char!0@1#1 17 18 19 20 21 22 23 24
c symex::nondet1 9 10 11 12 13 14 15 16
c symex::nondet0 1 2 3 4 5 6 7 8
c main::$tmp::return_value_nondet_char$0!0@1#2 9 10 11 12 13 14 15 16
c __CPROVER_rounding_mode!0#1 FALSE FALSE FALSE FALSE FALSE FALSE FALSE FALSE FALSE FALSE FALSE FALSE FALSE FALSE FALSE FALSE FALSE FALSE FALSE FALSE FALSE FALSE FALSE FALSE FALSE FALSE FALSE FALSE FALSE FALSE FALSE FALSE
c main::$tmp::return_value_nondet_char$0!0@1#1 25 26 27 28 29 30 31 32
c __CPROVER_memory_leak#1 FALSE FALSE FALSE FALSE FALSE FALSE FALSE FALSE FALSE FALSE FALSE FALSE FALSE FALSE FALSE FALSE FALSE FALSE FALSE FALSE FALSE FALSE FALSE FALSE FALSE FALSE FALSE FALSE FALSE FALSE FALSE FALSE FALSE FALSE FALSE FALSE FALSE FALSE FALSE FALSE FALSE FALSE FALSE FALSE FALSE FALSE FALSE FALSE FALSE FALSE FALSE FALSE FALSE FALSE FALSE FALSE FALSE FALSE FALSE FALSE FALSE FALSE FALSE FALSE
c __CPROVER_max_malloc_size#1 FALSE FALSE FALSE FALSE FALSE FALSE FALSE FALSE FALSE FALSE FALSE FALSE FALSE FALSE FALSE FALSE FALSE FALSE FALSE FALSE FALSE FALSE FALSE FALSE FALSE FALSE FALSE FALSE FALSE FALSE FALSE FALSE FALSE FALSE FALSE FALSE FALSE FALSE FALSE FALSE FALSE FALSE FALSE FALSE FALSE FALSE FALSE FALSE FALSE FALSE FALSE FALSE FALSE FALSE FALSE TRUE FALSE FALSE FALSE FALSE FALSE FALSE FALSE FALSE
c __CPROVER_deallocated#1 FALSE FALSE FALSE FALSE FALSE FALSE FALSE FALSE FALSE FALSE FALSE FALSE FALSE FALSE FALSE FALSE FALSE FALSE FALSE FALSE FALSE FALSE FALSE FALSE FALSE FALSE FALSE FALSE FALSE FALSE FALSE FALSE FALSE FALSE FALSE FALSE FALSE FALSE FALSE FALSE FALSE FALSE FALSE FALSE FALSE FALSE FALSE FALSE FALSE FALSE FALSE FALSE FALSE FALSE FALSE FALSE FALSE FALSE FALSE FALSE FALSE FALSE FALSE FALSE
c main::$tmp::return_value_nondet_char!0@1#2 1 2 3 4 5 6 7 8
c __CPROVER_dead_object#1 FALSE FALSE FALSE FALSE FALSE FALSE FALSE FALSE FALSE FALSE FALSE FALSE FALSE FALSE FALSE FALSE FALSE FALSE FALSE FALSE FALSE FALSE FALSE FALSE FALSE FALSE FALSE FALSE FALSE FALSE FALSE FALSE FALSE FALSE FALSE FALSE FALSE FALSE FALSE FALSE FALSE FALSE FALSE FALSE FALSE FALSE FALSE FALSE FALSE FALSE FALSE FALSE FALSE FALSE FALSE FALSE FALSE FALSE FALSE FALSE FALSE FALSE FALSE FALSE
